p cnf 56 80
-1 12 38 44 -2 51 0 
-3 52 0 
-4 33 52 0 
-5 52 0 
-1 12 38 44 51 0 
-6 13 19 52 0 
-1 12 38 44 52 0 
-7 17 30 43 49 51 0 
-6 13 19 51 0 
-8 25 50 51 0 
-8 25 50 52 0 
-9 51 0 
-10 52 0 
-11 21 26 29 40 51 0 
-7 17 30 43 49 52 0 
-12 1 38 44 51 0 
-13 6 19 51 0 
-4 33 51 0 
-14 51 0 
-14 52 0 
-9 -3 51 0 
-9 -3 52 0 
-12 1 38 44 -15 27 53 0 
-16 54 0 
-17 7 30 43 49 -18 -19 6 13 55 0 
-19 6 13 55 0 
-20 -21 11 26 29 40 55 0 
-22 47 -23 35 39 -12 1 38 44 -19 6 13 53 0 
-18 -20 -24 -25 8 50 -26 11 21 29 40 54 0 
-21 11 26 29 40 -17 7 30 43 49 -19 6 13 55 0 
-11 21 26 29 40 52 0 
-5 51 0 
-12 1 38 44 52 0 
-21 11 26 29 40 -27 15 -28 -17 7 30 43 49 55 0 
-29 11 21 26 40 -30 7 17 43 49 56 0 
-8 25 50 -1 12 38 44 -29 11 21 26 40 54 0 
-31 -17 7 30 43 49 -19 6 13 55 0 
-32 -33 4 54 0 
-32 52 0 
-1 12 38 44 -2 52 0 
-32 51 0 
-12 1 38 44 -2 52 0 
-12 1 38 44 -2 51 0 
-17 7 30 43 49 -18 -31 -21 11 26 29 40 55 0 
-34 -9 -16 54 0 
-35 23 39 -36 -15 27 53 0 
-24 54 0 
-34 -24 54 0 
-34 -16 54 0 
-17 7 30 43 49 -21 11 26 29 40 55 0 
-20 -16 54 0 
-18 -28 -17 7 30 43 49 55 0 
-21 11 26 29 40 -17 7 30 43 49 55 0 
-17 7 30 43 49 55 0 
-23 35 39 -12 1 38 44 -19 6 13 53 0 
-37 53 0 
-38 1 12 44 55 0 
-17 7 30 43 49 -20 -12 1 38 44 -19 6 13 55 0 
-1 12 38 44 -19 6 13 52 0 
-1 12 38 44 -19 6 13 51 0 
-22 47 -23 35 39 53 0 
-39 23 35 -40 11 21 26 29 55 0 
-18 -31 -16 54 0 
-41 -42 53 0 
-18 -24 -43 7 17 30 49 -44 1 12 38 -19 6 13 54 0 
-24 -31 -26 11 21 29 40 54 0 
-45 -46 53 0 
-24 -26 11 21 29 40 54 0 
-47 22 -36 -19 6 13 53 0 
-18 -20 -17 7 30 43 49 -28 -19 6 13 55 0 
-18 -33 4 -24 54 0 
-48 53 0 
-23 35 39 -14 53 0 
-18 -20 -21 11 26 29 40 -17 7 30 43 49 -19 6 13 55 0 
-40 11 21 26 29 -49 7 17 30 43 -23 35 39 55 0 
-27 15 52 0 
-13 6 19 52 0 
-50 8 25 52 0 
-50 8 25 51 0 
-27 15 51 0 
